unsat
(forall ((A (_ BitVec 32))
         (B (_ BitVec 1))
         (C (_ BitVec 32))
         (D (_ BitVec 1))
         (E (_ BitVec 70))
         (F (_ BitVec 4))
         (G (_ BitVec 4))
         (H (_ BitVec 4))
         (I (_ BitVec 4))
         (J (_ BitVec 1))
         (K (_ BitVec 1))
         (L (_ BitVec 1))
         (M (_ BitVec 1))
         (N (_ BitVec 1))
         (O (_ BitVec 1))
         (P (_ BitVec 4))
         (Q (_ BitVec 1))
         (R (_ BitVec 1))
         (S (_ BitVec 1))
         (T (_ BitVec 1))
         (U (_ BitVec 4))
         (V (_ BitVec 1))
         (W (_ BitVec 1))
         (X (_ BitVec 4))
         (Y (_ BitVec 1))
         (Z (_ BitVec 1))
         (A1 (_ BitVec 32))
         (B1 (_ BitVec 1))
         (C1 (_ BitVec 1))
         (D1 (_ BitVec 1))
         (E1 (_ BitVec 1))
         (F1 (_ BitVec 32))
         (G1 (_ BitVec 1))
         (H1 (_ BitVec 1))
         (I1 (_ BitVec 32))
         (J1 (_ BitVec 4))
         (K1 (_ BitVec 4))
         (L1 (_ BitVec 1))
         (M1 (_ BitVec 1))
         (N1 (_ BitVec 4))
         (O1 (_ BitVec 1))
         (P1 (_ BitVec 32))
         (Q1 (_ BitVec 1))
         (R1 (_ BitVec 1))
         (S1 (_ BitVec 1))
         (T1 (_ BitVec 1))
         (U1 (_ BitVec 1))
         (V1 (_ BitVec 1))
         (W1 (_ BitVec 32))
         (X1 (_ BitVec 1))
         (Y1 (_ BitVec 1))
         (Z1 (_ BitVec 1))
         (A2 (_ BitVec 1))
         (B2 (_ BitVec 1))
         (C2 (_ BitVec 1))
         (D2 (_ BitVec 4))
         (E2 (_ BitVec 1))
         (F2 (_ BitVec 70))
         (G2 (_ BitVec 1))
         (H2 (_ BitVec 1))
         (I2 (_ BitVec 1))
         (J2 (_ BitVec 1))
         (K2 (_ BitVec 1))
         (L2 (_ BitVec 1))
         (M2 (_ BitVec 32))
         (N2 (_ BitVec 1))
         (O2 (_ BitVec 1))
         (P2 (_ BitVec 1))
         (Q2 (_ BitVec 1))
         (R2 (_ BitVec 1))
         (S2 (_ BitVec 1))
         (T2 (_ BitVec 1))
         (U2 (_ BitVec 1))
         (V2 (_ BitVec 1))
         (W2 (_ BitVec 1))
         (X2 (_ BitVec 1))
         (Y2 (_ BitVec 1))
         (Z2 (_ BitVec 4))
         (A3 (_ BitVec 32))
         (B3 (_ BitVec 1))
         (C3 (_ BitVec 32))
         (D3 (_ BitVec 1))
         (E3 (_ BitVec 1))
         (F3 (_ BitVec 1))
         (G3 (_ BitVec 1)))
  (! (let ((a!1 (or (not (= C2 #b1))
                    (bvule #x4 (bvadd #x1 U))
                    (not (bvule #x5 (bvadd #x2 D2)))))
           (a!2 (or (= C1 #b0)
                    (not (= ((_ extract 3 3) P) #b0))
                    (not (= G1 #b1))
                    (not (= ((_ extract 1 1) P) #b0))
                    (not (= ((_ extract 2 2) P) #b0))
                    (not (= ((_ extract 0 0) P) #b0))))
           (a!3 (or (= O1 #b0)
                    (= C1 #b0)
                    (not (= ((_ extract 3 3) P) #b0))
                    (not (= ((_ extract 1 1) P) #b0))
                    (not (= ((_ extract 2 2) P) #b0))
                    (not (= ((_ extract 0 0) P) #b0))))
           (a!4 (or (not (= K2 #b0)) (not (bvule #x5 (bvadd #x1 D2)))))
           (a!5 (or (not (= W #b0)) (not (bvule #x5 (bvadd #x1 D2)))))
           (a!6 (or (not (= K2 #b0)) (not (bvule #x5 (bvadd #x2 D2)))))
           (a!7 (or (not (= K2 #b0)) (not (bvule #x5 (bvadd #x3 D2)))))
           (a!8 (or (not (= C2 #b1))
                    (not (bvule #x5 (bvadd #x1 D2)))
                    (bvule #x4 (bvadd #x1 U))))
           (a!9 (or (not (= Q1 #b1))
                    (= C2 #b1)
                    (= L1 #b1)
                    (= C2 K2)
                    (not (= X #xf))
                    (not (= ((_ extract 0 0) I) #b1))))
           (a!10 (or ((_ bit2bool 2) U)
                     (not (= C2 #b1))
                     (not (bvule #x5 (bvadd #x1 D2))))))
     (let ((a!11 (and a!1
                      (or (= O1 #b1) (= B3 #b0))
                      (or (= B3 #b0) (not (= J2 #b1)) (= P2 #b1))
                      (or (= X1 #b0) (= R #b1))
                      (or ((_ bit2bool 0) R) (not (= Z1 #b1)))
                      (not (bvule #x5 D2))
                      (or (= O1 #b0) (= (bvnot W) H2))
                      (or (= G3 #b1) (= (bvnot W) H2))
                      (or (= J1 N1) (not (= W #b1)) (= E1 #b1))
                      (or (= A2 #b1) (= J2 #b1) (= G3 #b1))
                      (or (= V1 #b0) (not (= W2 #b0)))
                      (or (= W #b0) (= J1 N1) (= B #b0) (= K #b1))
                      (or (not (= G1 #b0)) (not (= C2 #b1)))
                      (or (not (= Z1 #b1)) (not (= X1 #b1)))
                      (or ((_ bit2bool 0) X)
                          ((_ bit2bool 1) X)
                          ((_ bit2bool 2) X)
                          ((_ bit2bool 3) X)
                          (not (= Z1 #b0))
                          (= J1 N1)
                          ((_ bit2bool 0) E2)
                          ((_ bit2bool 0) U1)
                          (= L1 #b1))
                      (or (not (= G1 #b1)) (not (= Z1 #b0)))
                      (or (not (= K2 #b0)) (not (= W #b0)) (not (= C2 #b1)))
                      (or (= W #b1) (not (= Q1 #b1)) (= Q #b1))
                      a!2
                      a!3
                      (or (not (= G1 #b0)) (= K2 #b0) (not (= Z1 #b1)))
                      (or (not (= X1 #b0))
                          (= O1 #b0)
                          (= U1 #b1)
                          (not (= Z1 #b0))
                          ((_ bit2bool 0) E2)
                          (not (= R #b1)))
                      (or (not (bvule #x5 H)) (= U2 #b1))
                      (or (not (= Q1 #b1))
                          (not ((_ bit2bool 0) V2))
                          (not (= C2 #b1)))
                      a!4
                      (or ((_ bit2bool 0) X)
                          ((_ bit2bool 1) X)
                          ((_ bit2bool 2) X)
                          ((_ bit2bool 3) X)
                          (not ((_ bit2bool 0) I))
                          (not ((_ bit2bool 1) I))
                          (not ((_ bit2bool 2) I))
                          (not ((_ bit2bool 3) I))
                          (not (= C2 #b1))
                          (= S1 #b0))
                      a!5
                      (or (= G3 #b1) (= (bvnot R) T))
                      (or (= O1 #b0) (= (bvnot R) T))
                      (or (not (= G1 #b0))
                          (= K2 #b0)
                          (= G3 #b1)
                          ((_ bit2bool 0) U1)
                          (not (= S2 #b1))
                          (not ((_ bit2bool 0) R)))
                      (or ((_ bit2bool 0) Q1)
                          (not (= I X))
                          (not (= C2 #b1))
                          (= L1 #b1))
                      (or (not (bvule #x5 H)) (= K2 #b0))
                      (or ((_ bit2bool 69) F2) (not (= C2 #b1)))
                      (or (not ((_ bit2bool 69) F2)) (not (= C2 #b0)))
                      (or (not (= Q1 #b1)) (= P2 #b1))
                      (or (not (= Q1 #b1)) (not (= R #b0)))
                      (or (= R #b1) (= J1 N1))
                      a!6
                      a!7
                      (or (= K2 #b0)
                          ((_ bit2bool 1) U)
                          ((_ bit2bool 2) U)
                          (not (= C2 #b1)))
                      (or (not (= C2 #b1)) (not (= U #x0)))
                      a!8
                      (or ((_ bit2bool 0) X)
                          ((_ bit2bool 1) X)
                          ((_ bit2bool 2) X)
                          ((_ bit2bool 3) X)
                          (not (= Q1 #b1))
                          (= L1 #b1))
                      a!9
                      a!10)))
       (= (INV!slice!1 A
                       B
                       C
                       D
                       E
                       F
                       G
                       H
                       I
                       J
                       K
                       L
                       M
                       N
                       O
                       P
                       Q
                       R
                       S
                       T
                       U
                       V
                       W
                       X
                       Y
                       Z
                       A1
                       B1
                       C1
                       D1
                       E1
                       F1
                       G1
                       H1
                       I1
                       J1
                       K1
                       L1
                       M1
                       N1
                       O1
                       P1
                       Q1
                       R1
                       S1
                       T1
                       U1
                       V1
                       W1
                       X1
                       Y1
                       Z1
                       A2
                       B2
                       C2
                       D2
                       E2
                       F2
                       G2
                       H2
                       I2
                       J2
                       K2
                       L2
                       M2
                       N2
                       O2
                       P2
                       Q2
                       R2
                       S2
                       T2
                       U2
                       V2
                       W2
                       X2
                       Y2
                       Z2
                       A3
                       B3
                       C3
                       D3
                       E3
                       F3
                       G3)
          a!11)))
     :weight 0))
